6288.0
1 1 0 1 1 0 1 0 1 1 0 0 0 1 1 0 0 1 0 0 
0 0 0 0 1 0 1 1 1 3 3 3 3 3 3 4 4 4 4 4 4 4 4 4 6 6 6 6 6 6 6 8 8 8 8 9 9 8 9 9 9 9 8 13 8 9 8 8 13 13 13 13 13 13 13 14 14 13 14 13 0 14 14 14 14 17 17 17 17 17 17 17 17 17 17 17 0 17 0 0 